Set parameter TSPort to value 51199
Set parameter TokenServer to value "open-license1.lanl.gov"
Set parameter TimeLimit to value 8192
Set parameter Threads to value 1
Gurobi Optimizer version 10.0.3 build v10.0.3rc0 (linux64)

CPU model: Intel(R) Xeon(R) CPU E5-2695 v4 @ 2.10GHz, instruction set [SSE2|AVX|AVX2]
Thread count: 36 physical cores, 72 logical processors, using up to 1 threads

Optimize a model with 0 rows, 4046 columns and 0 nonzeros
Model fingerprint: 0x0215a508
Model has 18835 quadratic objective terms
Variable types: 0 continuous, 4046 integer (4046 binary)
Coefficient statistics:
  Matrix range     [0e+00, 0e+00]
  Objective range  [2e+00, 3e+01]
  QObjective range [8e+00, 8e+00]
  Bounds range     [1e+00, 1e+00]
  RHS range        [0e+00, 0e+00]
Found heuristic solution: objective 0.0000000
Found heuristic solution: objective -6888.000000
Found heuristic solution: objective -25062.00000
Found heuristic solution: objective -25136.00000
Presolve removed 0 rows and 3 columns
Presolve time: 0.46s
Presolved: 18832 rows, 22875 columns, 56496 nonzeros
Variable types: 0 continuous, 22875 integer (22875 binary)

Root relaxation: objective -3.524000e+04, 5658 iterations, 0.08 seconds (0.04 work units)

    Nodes    |    Current Node    |     Objective Bounds      |     Work
 Expl Unexpl |  Obj  Depth IntInf | Incumbent    BestBd   Gap | It/Node Time

     0     0 -35240.000    0 4043 -25136.000 -35240.000  40.2%     -    1s
     0     0 -33286.000    0 4950 -25136.000 -33286.000  32.4%     -    1s
     0     0 -32691.000    0 5319 -25136.000 -32691.000  30.1%     -    2s
     0     0 -32674.500    0 5327 -25136.000 -32674.500  30.0%     -    2s
     0     0 -32410.333    0 5499 -25136.000 -32410.333  28.9%     -    2s
     0     0 -32410.333    0 5438 -25136.000 -32410.333  28.9%     -    3s
     0     2 -32410.333    0 5423 -25136.000 -32410.333  28.9%     -    5s
   188   190 -31483.833   94 6326 -25136.000 -32396.333  28.9%   109   10s
   387   389 -30625.000  194 6786 -25136.000 -32396.333  28.9%  96.0   15s
   587   589 -29793.000  294 7344 -25136.000 -32396.333  28.9%  85.7   20s
   776   778 -29136.833  388 7583 -25136.000 -32396.333  28.9%  80.6   25s
   864   866 -28811.833  432 7655 -25136.000 -32396.333  28.9%  78.8   31s
   909   911 -28667.833  455 7659 -25136.000 -32396.333  28.9%  77.9   36s
H 1066  1066                    -25138.00000 -32396.333  28.9%  74.9   39s
  1082  1084 -28036.833  541 7909 -25138.000 -32396.333  28.9%  74.6   40s
H 1092  1092                    -25140.00000 -32396.333  28.9%  74.5   40s
  1289  1291 -27392.833  645 8006 -25140.000 -32396.333  28.9%  71.6   46s
H 1404  1404                    -25144.00000 -32396.333  28.8%  69.8   49s
H 1430  1430                    -25146.00000 -32396.333  28.8%  69.4   49s
  1439  1441 -26980.833  720 8073 -25146.000 -32396.333  28.8%  69.3   50s
H 1482  1482                    -25156.00000 -32396.333  28.8%  68.7   50s
H 1508  1508                    -25164.00000 -32396.333  28.7%  68.1   51s
H 1534  1534                    -25174.00000 -32396.333  28.7%  67.7   52s
H 1560  1560                    -25180.00000 -32396.333  28.7%  67.6   52s
H 1586  1586                    -25190.00000 -32396.333  28.6%  67.4   53s
H 1612  1612                    -25198.00000 -32396.333  28.6%  67.2   53s
H 1638  1638                    -25218.00000 -32396.333  28.5%  66.9   54s
  1662  1664 -26427.500  833 8013 -25218.000 -32396.333  28.5%  66.7   55s
H 1664  1664                    -25230.00000 -32396.333  28.4%  66.6   55s
H 1690  1690                    -25242.00000 -32396.333  28.3%  66.4   55s
H 1716  1716                    -25280.00000 -32396.333  28.2%  66.1   56s
H 1742  1742                    -25290.00000 -32396.333  28.1%  65.8   56s
H 1768  1768                    -25300.00000 -32396.333  28.0%  65.8   57s
H 1794  1794                    -25310.00000 -32396.333  28.0%  65.4   58s
H 1820  1820                    -25348.00000 -32396.333  27.8%  65.1   58s
H 1846  1846                    -25368.00000 -32396.333  27.7%  64.7   59s
  1867  1869 -25885.167  937 7860 -25368.000 -32396.333  27.7%  64.6   60s
H 1872  1872                    -25396.00000 -32396.333  27.6%  64.6   60s
H 1898  1898                    -25430.00000 -32396.333  27.4%  64.2   61s
H 1924  1924                    -25478.00000 -32396.333  27.2%  63.9   62s
H 1950  1950                    -25496.00000 -32396.333  27.1%  63.6   62s
H 1976  1976                    -25522.00000 -32396.333  26.9%  63.2   63s
H 2002  2002                    -25536.00000 -32396.333  26.9%  62.8   64s
  2018  2020 -25556.000 1015 7619 -25536.000 -32396.333  26.9%  62.5   65s
H 2028  2021                    -25562.00000 -32396.333  26.7%  62.3   65s
H 2041  2009                    -25564.00000 -32395.833  26.7%  62.0   68s
  2044  2011 -29520.000  333 4043 -25564.000 -32395.833  26.7%  61.9   72s
  2048  2014 -30778.456   68 6623 -25564.000 -30778.456  20.4%  61.8   76s
  2054  2018 -29124.833  390 6859 -25564.000 -30697.490  20.1%  61.6   80s
  2055  2019 -30179.325   67 7265 -25564.000 -30179.325  18.1%  61.5   90s
  2056  2019 -26707.833  784 7912 -25564.000 -29982.742  17.3%  61.5  109s
  2057  2020 -26606.833  800 8229 -25564.000 -29918.237  17.0%  61.5  126s
  2058  2021 -27082.833  703 8310 -25564.000 -29901.473  17.0%  61.5  136s
  2059  2021 -25863.167  942 8413 -25564.000 -29896.230  16.9%  61.4  140s
  2061  2023 -28363.833  497 8599 -25564.000 -29893.027  16.9%  61.4  145s
  2068  2027 -26197.167  875 8762 -25564.000 -29891.971  16.9%  61.2  150s
  2069  2028 -28233.833  513 9120 -25564.000 -29493.271  15.4%  61.1  244s
  2070  2029 -29380.031  216 9720 -25564.000 -29380.031  14.9%  61.1  332s
  2071  2029 -29327.973   18 10116 -25564.000 -29327.973  14.7%  61.1  411s
  2072  2030 -27094.833  701 10378 -25564.000 -29309.759  14.7%  61.0  459s
  2073  2031 -28785.833  437 10500 -25564.000 -29302.101  14.6%  61.0  486s
  2074  2031 -26595.833  802 10736 -25564.000 -29299.567  14.6%  61.0  495s
  2075  2032 -29297.901    3 10811 -25564.000 -29297.901  14.6%  61.0  501s
  2076  2033 -26666.833  791 10827 -25564.000 -29296.502  14.6%  60.9  508s
  2077  2033 -29296.266   17 10851 -25564.000 -29296.266  14.6%  60.9  511s
  2081  2036 -29296.115   88 10970 -25564.000 -29296.115  14.6%  60.8  517s
  2082  2037 -28991.151  177 11121 -25564.000 -28991.151  13.4%  60.7  714s
  2083  2037 -28118.833  530 11559 -25564.000 -28916.862  13.1%  60.7  877s
  2084  2038 -28620.833  461 11999 -25564.000 -28865.072  12.9%  60.7 1015s
  2085  2039 -28729.833  446 12395 -25564.000 -28845.035  12.8%  60.7 1118s
  2086  2039 -28838.512   59 12583 -25564.000 -28838.512  12.8%  60.6 1153s
  2087  2040 -28836.173   17 12646 -25564.000 -28836.173  12.8%  60.6 1175s
  2088  2041 -26886.833  749 12736 -25564.000 -28835.231  12.8%  60.6 1185s
  2089  2041 -28280.833  507 12745 -25564.000 -28834.590  12.8%  60.5 1195s
  2091  2043 -28834.310   31 12847 -25564.000 -28834.310  12.8%  60.5 1203s
  2093  2044 -25941.167  925 12899 -25564.000 -28834.267  12.8%  60.4 1205s
  2095  2045 -28574.939  423 13137 -25564.000 -28574.939  11.8%  60.4 1530s
  2096  2046 -27571.833  615 13623 -25564.000 -28523.935  11.6%  60.3 1752s
  2097  2047 -28485.346  208 13910 -25564.000 -28485.346  11.4%  60.3 1946s
  2098  2047 -28471.198  237 14458 -25564.000 -28471.198  11.4%  60.3 2049s
  2099  2048 -27568.833  616 14594 -25564.000 -28465.120  11.3%  60.3 2107s
  2100  2049 -26248.167  867 14756 -25564.000 -28463.280  11.3%  60.2 2134s
  2101  2049 -28462.465  229 14905 -25564.000 -28462.465  11.3%  60.2 2150s
  2102  2050 -26903.833  743 14914 -25564.000 -28461.889  11.3%  60.2 2162s
  2103  2051 -27253.833  667 14884 -25564.000 -28461.708  11.3%  60.1 2169s
  2104  2051 -25791.167  955 14902 -25564.000 -28461.539  11.3%  60.1 2175s
  2107  2053 -28461.508  361 14962 -25564.000 -28461.508  11.3%  60.0 2183s
  2108  2054 -28260.482  322 15403 -25564.000 -28260.482  10.5%  60.0 2647s
  2109  2055 -26095.167  895 15757 -25564.000 -28225.192  10.4%  60.0 2921s
  2110  2055 -28191.374  515 16020 -25564.000 -28191.374  10.3%  59.9 3174s
  2111  2056 -25929.833  927 16446 -25564.000 -28180.886  10.2%  59.9 3300s
  2112  2057 -26575.000  807 16750 -25564.000 -28177.343  10.2%  59.9 3369s
  2113  2057 -28176.250  137 16821 -25564.000 -28176.250  10.2%  59.9 3399s
  2114  2058 -28175.606   69 16855 -25564.000 -28175.606  10.2%  59.8 3421s
  2115  2059 -28175.351  470 16888 -25564.000 -28175.351  10.2%  59.8 3433s
  2116  2059 -28175.284  205 16903 -25564.000 -28175.284  10.2%  59.8 3439s
  2117  2060 -28175.230  413 16884 -25564.000 -28175.230  10.2%  59.7 3444s
  2118  2061 -25629.667  990 16912 -25564.000 -28175.198  10.2%  59.7 3448s
  2119  2061 -28175.184  230 16941 -25564.000 -28175.184  10.2%  59.7 3450s
  2121  2063 -26295.167  858 17182 -25564.000 -28053.224  9.74%  59.6 3944s
  2122  2063 -28031.702  454 17514 -25564.000 -28031.702  9.65%  59.6 4214s
  2123  2064 -26886.833  749 17689 -25564.000 -28026.205  9.63%  59.6 4320s
  2124  2065 -28024.653  122 17763 -25564.000 -28024.653  9.63%  59.5 4367s
  2125  2065 -25735.167  965 17839 -25564.000 -28023.984  9.62%  59.5 4391s
  2126  2066 -28023.640  313 17828 -25564.000 -28023.640  9.62%  59.5 4406s
  2127  2067 -27339.833  655 17908 -25564.000 -28023.546  9.62%  59.5 4413s
  2128  2067 -28023.521  427 17968 -25564.000 -28023.521  9.62%  59.4 4417s
  2130  2069 -28023.511  202 17959 -25564.000 -28023.511  9.62%  59.4 4423s
  2131  2069 -27943.029  306 18016 -25564.000 -27943.029  9.31%  59.4 4894s
  2132  2070 -27925.431    7 18222 -25564.000 -27925.431  9.24%  59.3 5163s
  2133  2071 -26204.167  874 18305 -25564.000 -27921.791  9.22%  59.3 5249s
  2134  2071 -27920.628  284 18448 -25564.000 -27920.628  9.22%  59.3 5291s
  2135  2072 -27920.058  106 18565 -25564.000 -27920.058  9.22%  59.2 5316s
  2136  2073 -27475.833  633 18467 -25564.000 -27919.839  9.22%  59.2 5336s
  2137  2073 -27056.833  707 18497 -25564.000 -27919.665  9.21%  59.2 5351s
  2138  2074 -27919.603   32 18627 -25564.000 -27919.603  9.21%  59.2 5357s
  2139  2075 -27919.580  551 18542 -25564.000 -27919.580  9.21%  59.1 5363s
  2140  2075 -26592.833  804 18671 -25564.000 -27919.569  9.21%  59.1 5366s
  2141  2076 -27656.833  602 18681 -25564.000 -27919.564  9.21%  59.1 5372s
  2142  2077 -27844.684  349 18590 -25564.000 -27844.684  8.92%  59.0 5885s
  2143  2077 -27831.488  106 18759 -25564.000 -27831.488  8.87%  59.0 6160s
  2144  2078 -27828.543  333 18918 -25564.000 -27828.543  8.86%  59.0 6252s
  2145  2079 -26997.833  718 19004 -25564.000 -27827.809  8.86%  59.0 6290s
  2146  2079 -27827.491  134 18989 -25564.000 -27827.491  8.85%  58.9 6319s
  2147  2080 -27827.220  188 18937 -25564.000 -27827.220  8.85%  58.9 6340s
  2148  2081 -27827.115   68 18944 -25564.000 -27827.115  8.85%  58.9 6354s
  2149  2081 -27757.833  587 19005 -25564.000 -27827.088  8.85%  58.9 6360s
  2151  2083 -27827.075  330 19027 -25564.000 -27827.075  8.85%  58.8 6369s
  2152  2083 -26474.500  826 18997 -25564.000 -27774.622  8.65%  58.8 6882s
  2153  2084 -27152.833  690 19129 -25564.000 -27763.093  8.60%  58.7 7167s
  2154  2085 -27761.169  390 19199 -25564.000 -27761.169  8.59%  58.7 7241s
  2155  2085 -27760.636   67 19224 -25564.000 -27760.636  8.59%  58.7 7283s
  2156  2086 -26707.833  784 19251 -25564.000 -27760.475  8.59%  58.7 7305s
  2157  2087 -26606.833  800 19282 -25564.000 -27760.416  8.59%  58.6 7316s
  2158  2087 -27082.833  703 19326 -25564.000 -27760.398  8.59%  58.6 7321s
  2160  2089 -27760.384  175 19347 -25564.000 -27760.384  8.59%  58.6 7327s
  2161  2089 -27760.382  497 19352 -25564.000 -27760.382  8.59%  58.5 7333s
  2162  2090 -27628.833  606 19190 -25564.000 -27718.987  8.43%  58.5 7806s
  2163  2091 -26569.500  808 19350 -25564.000 -27710.060  8.39%  58.5 8065s
  2164  2091 -27708.574   71 19404 -25564.000 -27708.574  8.39%  58.4 8147s
  2165  2092 -27205.833  677 19469 -25564.000 -27708.002  8.39%  58.4 8182s

Cutting planes:
  Gomory: 171
  MIR: 729
  Flow cover: 6588
  Zero half: 2207
  Mod-K: 115
  RLT: 866
  BQP: 1152

Explored 2165 nodes (3513131 simplex iterations) in 8192.00 seconds (13358.77 work units)
Thread count was 1 (of 72 available processors)

Solution count 10: -25564 -25562 -25536 ... -25348

Time limit reached
Best objective -2.556400000000e+04, best bound -2.770800000000e+04, gap 8.3868%

User-callback calls 22119, time in user-callback 0.10 sec

BQP_SOLUTION, 4046, 18835, -9159.000000, 8192.001631, -1, 1, -1, 1, 1, -1, 1, -1, -1, 1, -1, 1, 1, -1, 1, 1, -1, 1, 1, -1, 1, -1, 1, 1, 1, 1, -1, 1, 1, 1, 1, 1, -1, -1, -1, -1, 1, 1, 1, -1, 1, 1, -1, 1, 1, 1, -1, 1, 1, 1, 1, 1, -1, -1, 1, -1, 1, 1, 1, 1, -1, -1, 1, 1, 1, 1, -1, 1, -1, 1, 1, -1, 1, -1, -1, 1, 1, 1, -1, -1, 1, 1, 1, 1, -1, 1, -1, 1, 1, 1, -1, -1, -1, 1, -1, 1, 1, 1, -1, 1, -1, 1, 1, 1, 1, -1, 1, 1, 1, 1, 1, -1, -1, -1, 1, 1, 1, -1, -1, 1, -1, 1, 1, -1, 1, -1, -1, 1, 1, 1, 1, -1, 1, 1, -1, 1, 1, -1, -1, 1, -1, 1, 1, -1, 1, 1, -1, 1, 1, 1, -1, -1, -1, 1, 1, 1, -1, 1, -1, -1, 1, 1, -1, 1, -1, -1, 1, 1, 1, -1, 1, 1, -1, 1, 1, 1, 1, -1, -1, 1, 1, 1, 1, -1, 1, -1, -1, 1, 1, -1, -1, -1, 1, 1, 1, 1, 1, -1, 1, 1, 1, 1, 1, -1, 1, 1, 1, 1, 1, 1, -1, 1, 1, 1, 1, 1, -1, 1, -1, 1, 1, 1, -1, 1, -1, 1, 1, 1, -1, -1, -1, 1, 1, -1, 1, 1, -1, 1, -1, 1, 1, -1, 1, -1, 1, 1, -1, 1, 1, -1, 1, -1, 1, 1, -1, -1, -1, 1, 1, -1, 1, 1, -1, -1, 1, 1, 1, 1, -1, 1, 1, 1, 1, 1, 1, -1, -1, 1, 1, 1, 1, -1, -1, 1, 1, -1, -1, 1, -1, -1, -1, 1, 1, 1, -1, 1, 1, 1, -1, -1, 1, -1, -1, -1, -1, 1, 1, -1, -1, 1, 1, -1, 1, -1, -1, -1, 1, 1, 1, -1, -1, -1, 1, -1, -1, 1, -1, -1, -1, -1, 1, 1, -1, 1, 1, 1, 1, -1, 1, 1, 1, -1, -1, 1, -1, -1, -1, 1, 1, -1, 1, 1, 1, -1, 1, 1, -1, 1, -1, 1, 1, 1, -1, 1, -1, 1, -1, -1, 1, 1, 1, -1, -1, 1, 1, 1, 1, 1, 1, -1, -1, 1, 1, -1, -1, -1, 1, 1, 1, 1, 1, 1, -1, -1, 1, -1, -1, -1, -1, 1, 1, 1, 1, 1, 1, 1, -1, -1, 1, -1, -1, -1, 1, 1, -1, -1, -1, 1, 1, -1, 1, -1, -1, 1, -1, 1, 1, -1, 1, 1, 1, -1, -1, 1, 1, -1, 1, -1, 1, -1, -1, 1, 1, 1, -1, -1, 1, 1, -1, 1, -1, 1, 1, -1, 1, 1, 1, -1, -1, 1, -1, -1, 1, 1, 1, -1, 1, 1, 1, 1, -1, 1, 1, -1, -1, 1, 1, 1, -1, -1, 1, 1, -1, -1, 1, 1, -1, 1, 1, 1, 1, -1, 1, 1, 1, -1, -1, 1, 1, -1, 1, 1, 1, 1, -1, -1, 1, 1, -1, -1, 1, -1, -1, 1, 1, 1, 1, -1, -1, 1, 1, -1, 1, -1, 1, 1, 1, 1, 1, 1, -1, -1, 1, 1, 1, -1, 1, 1, -1, 1, 1, 1, 1, -1, -1, 1, 1, -1, 1, 1, 1, 1, 1, 1, -1, 1, -1, -1, 1, 1, -1, -1, 1, -1, 1, 1, 1, 1, 1, -1, -1, 1, 1, 1, -1, 1, 1, 1, -1, 1, 1, 1, 1, -1, 1, 1, -1, 1, 1, 1, 1, 1, 1, 1, 1, 1, -1, 1, 1, -1, 1, 1, -1, 1, 1, 1, 1, 1, -1, -1, 1, 1, 1, -1, 1, 1, -1, 1, 1, 1, 1, 1, -1, 1, 1, -1, 1, 1, 1, 1, 1, 1, 1, 1, -1, -1, 1, -1, -1, 1, 1, -1, 1, 1, 1, 1, 1, -1, -1, 1, 1, -1, 1, -1, 1, -1, 1, -1, -1, 1, -1, -1, 1, 1, -1, 1, -1, -1, 1, 1, 1, 1, 1, -1, -1, 1, 1, -1, 1, -1, -1, 1, 1, 1, 1, 1, -1, -1, 1, 1, -1, 1, 1, -1, -1, 1, 1, -1, 1, 1, 1, 1, 1, -1, 1, 1, -1, 1, 1, 1, 1, 1, -1, 1, -1, 1, -1, 1, -1, -1, 1, -1, 1, -1, 1, -1, 1, 1, 1, 1, -1, 1, -1, -1, 1, 1, -1, 1, 1, 1, -1, 1, 1, 1, 1, -1, 1, 1, 1, -1, 1, 1, -1, 1, -1, 1, 1, 1, -1, -1, 1, 1, 1, 1, 1, -1, -1, -1, 1, 1, -1, 1, 1, 1, 1, -1, 1, 1, -1, -1, 1, 1, 1, 1, -1, 1, 1, -1, 1, 1, 1, -1, -1, 1, -1, 1, -1, -1, 1, -1, 1, -1, 1, 1, -1, -1, 1, 1, 1, 1, -1, -1, 1, 1, 1, -1, 1, -1, -1, 1, 1, 1, 1, -1, 1, 1, 1, 1, 1, -1, 1, -1, -1, 1, 1, 1, -1, 1, 1, 1, 1, -1, 1, 1, -1, 1, 1, -1, 1, -1, 1, 1, 1, 1, 1, 1, -1, -1, -1, -1, 1, 1, -1, 1, 1, 1, 1, -1, 1, 1, 1, -1, 1, 1, 1, -1, 1, 1, 1, 1, -1, 1, -1, -1, -1, 1, 1, -1, 1, -1, 1, 1, 1, -1, 1, -1, 1, -1, 1, -1, 1, -1, 1, 1, 1, 1, -1, 1, 1, -1, 1, -1, -1, 1, -1, -1, 1, -1, 1, -1, 1, 1, 1, 1, -1, -1, 1, -1, -1, 1, 1, 1, -1, -1, -1, -1, 1, -1, 1, -1, -1, 1, 1, 1, 1, -1, 1, -1, 1, 1, -1, 1, 1, -1, 1, 1, 1, -1, -1, -1, 1, 1, -1, -1, 1, 1, -1, 1, 1, 1, 1, 1, -1, -1, 1, 1, 1, 1, -1, -1, 1, 1, 1, 1, -1, -1, -1, 1, 1, -1, -1, 1, -1, 1, 1, 1, 1, 1, -1, 1, -1, -1, -1, 1, -1, 1, 1, 1, -1, -1, -1, -1, 1, 1, -1, 1, -1, -1, 1, 1, 1, 1, -1, -1, -1, 1, 1, -1, 1, -1, -1, -1, 1, 1, 1, 1, -1, -1, 1, 1, -1, -1, 1, -1, -1, 1, 1, 1, 1, -1, -1, -1, 1, 1, -1, 1, -1, -1, 1, -1, 1, 1, -1, -1, 1, 1, -1, 1, -1, -1, -1, 1, 1, 1, -1, -1, -1, 1, 1, 1, -1, -1, -1, -1, 1, 1, 1, -1, -1, -1, 1, 1, 1, -1, -1, 1, -1, 1, 1, 1, -1, 1, -1, 1, -1, 1, -1, -1, -1, 1, 1, 1, 1, -1, -1, 1, -1, 1, 1, -1, -1, -1, 1, 1, -1, -1, -1, -1, 1, 1, 1, -1, -1, -1, -1, -1, -1, 1, 1, -1, -1, 1, 1, 1, 1, -1, 1, -1, 1, 1, 1, 1, -1, -1, 1, 1, -1, 1, -1, -1, -1, 1, 1, 1, -1, -1, -1, 1, 1, -1, 1, -1, -1, -1, 1, 1, -1, -1, 1, -1, 1, 1, 1, -1, 1, -1, -1, 1, -1, 1, -1, 1, -1, 1, 1, 1, -1, 1, -1, -1, 1, -1, 1, 1, -1, -1, 1, 1, -1, 1, -1, 1, -1, 1, 1, -1, -1, 1, 1, 1, 1, 1, -1, 1, -1, -1, 1, -1, 1, 1, 1, -1, 1, 1, -1, -1, 1, -1, -1, 1, 1, -1, 1, 1, -1, 1, 1, -1, 1, 1, 1, -1, 1, -1, 1, -1, -1, -1, 1, -1, -1, 1, -1, -1, 1, -1, -1, 1, -1, 1, -1, 1, -1, -1, 1, -1, 1, -1, -1, -1, 1, 1, -1, 1, 1, -1, -1, 1, 1, 1, 1, -1, -1, 1, -1, 1, 1, 1, -1, -1, 1, 1, -1, -1, -1, -1, 1, -1, 1, -1, 1, -1, 1, 1, 1, -1, 1, 1, -1, 1, -1, 1, -1, 1, -1, -1, -1, 1, 1, 1, 1, -1, -1, 1, -1, -1, 1, 1, -1, 1, 1, -1, 1, -1, -1, 1, 1, 1, -1, 1, -1, -1, -1, 1, 1, -1, 1, -1, 1, -1, 1, -1, 1, 1, -1, -1, 1, 1, 1, -1, -1, -1, 1, -1, 1, 1, 1, -1, 1, 1, 1, 1, 1, -1, 1, 1, 1, -1, 1, 1, -1, -1, 1, 1, -1, 1, 1, -1, 1, -1, -1, 1, -1, 1, 1, 1, -1, 1, 1, -1, 1, 1, -1, -1, -1, 1, -1, 1, 1, -1, 1, 1, 1, 1, -1, -1, 1, 1, 1, -1, 1, 1, -1, 1, 1, 1, -1, -1, -1, 1, 1, -1, 1, 1, 1, -1, 1, 1, -1, -1, -1, -1, 1, 1, -1, -1, 1, 1, -1, 1, 1, 1, 1, -1, -1, 1, -1, 1, -1, 1, 1, -1, 1, 1, 1, 1, 1, -1, 1, -1, 1, -1, 1, 1, -1, 1, -1, 1, 1, -1, -1, 1, 1, 1, -1, -1, 1, -1, 1, -1, 1, -1, 1, -1, 1, -1, 1, 1, -1, 1, -1, -1, 1, -1, -1, 1, -1, -1, -1, 1, -1, -1, 1, 1, -1, 1, 1, 1, 1, -1, -1, 1, 1, 1, -1, -1, -1, 1, 1, 1, 1, -1, 1, -1, -1, 1, -1, -1, 1, -1, -1, -1, 1, 1, 1, 1, 1, 1, 1, -1, -1, 1, -1, -1, 1, 1, -1, 1, 1, 1, 1, 1, -1, 1, 1, -1, 1, 1, 1, 1, -1, -1, 1, 1, -1, -1, -1, -1, 1, -1, -1, 1, 1, 1, 1, 1, -1, 1, -1, -1, -1, -1, -1, 1, 1, 1, 1, 1, 1, -1, 1, -1, 1, -1, -1, 1, -1, 1, 1, 1, 1, 1, -1, 1, 1, -1, -1, -1, 1, -1, 1, 1, 1, 1, 1, -1, -1, 1, -1, -1, 1, 1, -1, 1, 1, 1, 1, 1, -1, 1, 1, -1, -1, -1, -1, -1, -1, 1, 1, 1, 1, -1, -1, 1, 1, -1, 1, 1, -1, -1, -1, 1, 1, 1, 1, -1, 1, -1, -1, -1, 1, -1, -1, 1, 1, 1, 1, -1, -1, -1, -1, 1, 1, 1, -1, -1, -1, -1, 1, 1, 1, -1, -1, 1, -1, -1, 1, 1, -1, 1, 1, 1, 1, -1, -1, -1, 1, -1, -1, 1, -1, -1, 1, 1, 1, 1, -1, -1, 1, -1, 1, 1, -1, -1, -1, 1, 1, -1, 1, -1, 1, -1, 1, 1, 1, -1, -1, -1, 1, 1, 1, -1, -1, -1, -1, -1, -1, 1, -1, -1, -1, 1, 1, -1, 1, -1, -1, 1, 1, 1, -1, -1, -1, -1, 1, 1, 1, 1, -1, 1, -1, 1, 1, 1, -1, -1, -1, 1, 1, 1, -1, 1, -1, 1, -1, 1, 1, 1, -1, -1, -1, 1, -1, 1, -1, -1, 1, -1, 1, 1, 1, -1, -1, -1, 1, 1, 1, 1, -1, -1, 1, 1, 1, 1, -1, 1, -1, 1, 1, 1, -1, -1, -1, 1, 1, -1, -1, -1, -1, -1, 1, 1, 1, 1, 1, -1, -1, 1, 1, 1, -1, -1, -1, 1, 1, 1, -1, -1, -1, 1, 1, 1, 1, 1, -1, -1, -1, 1, 1, 1, -1, -1, 1, -1, 1, -1, -1, -1, -1, 1, -1, 1, -1, 1, 1, 1, 1, 1, 1, -1, -1, -1, 1, -1, 1, -1, -1, -1, 1, -1, 1, 1, 1, -1, -1, 1, -1, 1, 1, -1, -1, -1, 1, 1, 1, -1, -1, -1, -1, -1, 1, 1, 1, -1, -1, 1, -1, 1, -1, -1, -1, -1, 1, 1, 1, -1, -1, 1, -1, 1, 1, 1, -1, 1, -1, -1, 1, 1, -1, -1, 1, -1, -1, -1, 1, -1, -1, -1, -1, 1, 1, 1, -1, 1, -1, -1, 1, 1, -1, -1, -1, -1, 1, 1, 1, -1, 1, -1, -1, 1, 1, -1, -1, -1, -1, 1, 1, 1, -1, -1, -1, -1, 1, 1, -1, -1, -1, 1, -1, 1, -1, -1, 1, -1, -1, 1, 1, -1, -1, -1, -1, -1, 1, 1, 1, 1, -1, 1, -1, 1, 1, -1, -1, 1, 1, -1, -1, -1, 1, 1, -1, -1, 1, 1, -1, -1, 1, -1, 1, -1, -1, -1, -1, 1, -1, -1, 1, -1, 1, 1, -1, -1, -1, -1, 1, -1, -1, -1, -1, 1, 1, -1, 1, 1, 1, -1, -1, 1, -1, -1, -1, -1, 1, 1, -1, 1, 1, -1, -1, -1, 1, -1, -1, -1, -1, 1, 1, -1, 1, -1, 1, -1, 1, 1, -1, -1, 1, 1, 1, -1, -1, 1, -1, -1, -1, 1, -1, -1, -1, -1, -1, 1, 1, -1, 1, -1, -1, -1, 1, 1, -1, -1, -1, -1, 1, -1, -1, 1, -1, -1, -1, -1, 1, -1, -1, -1, 1, 1, 1, -1, 1, -1, -1, -1, -1, 1, -1, -1, 1, -1, 1, -1, -1, 1, -1, -1, -1, -1, 1, -1, -1, 1, -1, -1, 1, -1, 1, 1, -1, -1, -1, 1, -1, 1, 1, -1, 1, 1, -1, 1, -1, 1, 1, 1, 1, -1, -1, 1, -1, 1, -1, -1, -1, -1, -1, -1, 1, 1, -1, -1, 1, -1, 1, -1, 1, -1, 1, -1, -1, -1, 1, -1, 1, -1, -1, 1, 1, -1, -1, -1, -1, -1, -1, -1, -1, 1, 1, -1, 1, 1, -1, 1, -1, -1, -1, -1, -1, 1, -1, -1, -1, 1, 1, -1, -1, 1, -1, -1, 1, -1, 1, -1, 1, -1, 1, 1, -1, -1, 1, -1, -1, -1, 1, 1, -1, 1, -1, 1, 1, -1, -1, 1, -1, -1, -1, -1, -1, 1, 1, 1, 1, 1, -1, -1, -1, 1, -1, -1, -1, 1, -1, 1, -1, -1, 1, -1, 1, 1, -1, -1, -1, -1, -1, 1, 1, 1, 1, 1, -1, -1, 1, 1, -1, 1, -1, 1, -1, 1, 1, -1, 1, -1, -1, -1, 1, -1, 1, -1, -1, 1, 1, 1, -1, 1, 1, -1, 1, -1, -1, -1, 1, -1, -1, 1, 1, 1, 1, 1, -1, 1, -1, 1, -1, -1, 1, -1, 1, -1, -1, 1, 1, -1, 1, -1, 1, -1, 1, -1, 1, 1, 1, -1, 1, -1, -1, 1, -1, 1, -1, 1, 1, 1, 1, 1, 1, -1, -1, 1, 1, 1, 1, -1, -1, -1, 1, -1, 1, 1, 1, -1, 1, -1, 1, -1, 1, 1, 1, 1, 1, 1, 1, -1, -1, 1, 1, 1, 1, 1, 1, 1, 1, 1, 1, -1, 1, 1, 1, -1, 1, -1, 1, 1, -1, 1, 1, 1, 1, 1, -1, 1, 1, 1, 1, -1, 1, -1, 1, 1, 1, 1, 1, -1, 1, 1, 1, 1, -1, 1, 1, 1, 1, 1, 1, 1, 1, -1, 1, 1, 1, -1, 1, -1, 1, -1, 1, -1, 1, -1, -1, 1, 1, 1, -1, 1, -1, 1, 1, 1, 1, 1, 1, 1, 1, 1, -1, 1, -1, 1, -1, 1, -1, 1, 1, -1, 1, 1, 1, -1, 1, -1, 1, 1, 1, 1, 1, 1, 1, 1, 1, -1, -1, -1, 1, -1, 1, 1, 1, 1, -1, 1, 1, 1, -1, -1, 1, 1, -1, 1, 1, 1, -1, 1, -1, 1, 1, -1, -1, 1, -1, -1, -1, 1, -1, 1, 1, 1, 1, 1, 1, -1, -1, 1, 1, -1, -1, -1, 1, 1, 1, 1, 1, -1, -1, -1, 1, -1, -1, 1, 1, -1, 1, 1, -1, 1, -1, 1, -1, 1, -1, 1, -1, 1, 1, 1, -1, 1, 1, -1, -1, -1, -1, -1, -1, 1, -1, 1, 1, -1, 1, 1, -1, -1, -1, 1, -1, -1, 1, -1, 1, -1, 1, 1, -1, -1, -1, -1, 1, -1, -1, 1, 1, 1, -1, 1, 1, 1, 1, -1, -1, 1, -1, 1, 1, -1, -1, -1, -1, 1, -1, -1, -1, 1, -1, -1, -1, 1, 1, -1, 1, -1, 1, -1, -1, -1, 1, -1, -1, 1, -1, 1, -1, -1, 1, -1, -1, -1, 1, 1, 1, -1, -1, -1, 1, -1, -1, 1, 1, -1, 1, -1, 1, -1, -1, 1, 1, -1, 1, -1, 1, 1, -1, 1, -1, -1, 1, -1, -1, 1, -1, -1, -1, -1, 1, -1, 1, -1, 1, 1, -1, -1, 1, -1, -1, -1, 1, -1, -1, 1, 1, -1, 1, -1, -1, 1, -1, 1, -1, 1, -1, -1, 1, -1, 1, 1, -1, 1, 1, -1, 1, -1, 1, -1, -1, 1, -1, 1, 1, -1, -1, 1, -1, -1, -1, -1, -1, -1, -1, -1, 1, 1, -1, -1, 1, 1, -1, -1, -1, -1, -1, 1, 1, 1, 1, 1, -1, 1, 1, -1, -1, -1, 1, -1, 1, -1, 1, 1, -1, 1, 1, -1, 1, 1, -1, -1, 1, 1, 1, 1, 1, 1, 1, 1, -1, 1, -1, 1, -1, -1, 1, 1, 1, 1, -1, 1, -1, -1, 1, -1, 1, -1, -1, 1, 1, -1, 1, -1, 1, -1, -1, 1, -1, -1, 1, -1, 1, 1, 1, -1, 1, 1, -1, -1, 1, -1, -1, -1, -1, 1, 1, 1, 1, -1, 1, 1, -1, 1, -1, -1, -1, -1, 1, 1, 1, -1, 1, 1, -1, -1, 1, 1, -1, -1, 1, -1, 1, 1, 1, -1, 1, -1, -1, 1, -1, -1, 1, -1, 1, 1, 1, 1, 1, 1, -1, -1, 1, 1, -1, -1, -1, 1, 1, 1, 1, 1, 1, 1, -1, 1, 1, -1, -1, -1, 1, -1, 1, 1, 1, 1, 1, 1, 1, 1, -1, -1, -1, 1, -1, 1, 1, -1, 1, -1, -1, 1, -1, -1, 1, 1, -1, 1, 1, 1, -1, 1, 1, -1, 1, -1, -1, -1, 1, 1, 1, 1, -1, 1, -1, -1, 1, -1, -1, 1, 1, -1, 1, -1, 1, 1, -1, -1, 1, 1, 1, -1, 1, -1, -1, -1, 1, 1, -1, 1, -1, -1, 1, -1, -1, 1, 1, -1, -1, 1, -1, -1, -1, -1, -1, 1, 1, -1, 1, -1, 1, -1, 1, 1, -1, -1, -1, -1, 1, 1, -1, 1, -1, 1, 1, 1, 1, 1, 1, -1, -1, 1, 1, -1, 1, -1, -1, -1, -1, 1, 1, -1, 1, -1, -1, 1, -1, 1, -1, -1, -1, -1, 1, -1, -1, 1, -1, 1, 1, 1, -1, 1, -1, -1, -1, 1, 1, -1, 1, -1, -1, -1, -1, 1, 1, 1, 1, -1, 1, -1, -1, 1, -1, -1, 1, -1, 1, -1, -1, -1, -1, 1, 1, -1, 1, -1, -1, -1, 1, 1, 1, -1, -1, -1, 1, 1, -1, 1, -1, -1, -1, 1, -1, -1, 1, -1, 1, -1, -1, 1, -1, -1, 1, 1, -1, 1, -1, 1, -1, 1, -1, -1, 1, 1, -1, -1, -1, 1, 1, -1, 1, -1, 1, 1, -1, 1, 1, -1, -1, -1, 1, -1, -1, -1, 1, -1, 1, -1, 1, 1, -1, 1, 1, -1, 1, -1, 1, -1, -1, -1, -1, 1, 1, 1, 1, -1, 1, 1, -1, -1, -1, -1, -1, -1, -1, 1, -1, 1, -1, 1, 1, -1, -1, -1, 1, -1, 1, -1, 1, 1, -1, 1, -1, 1, -1, 1, -1, -1, 1, 1, -1, 1, 1, -1, -1, 1, 1, -1, -1, -1, 1, -1, 1, -1, -1, 1, -1, 1, -1, 1, -1, -1, -1, -1, -1, -1, -1, 1, 1, -1, 1, -1, 1, -1, -1, -1, -1, -1, 1, -1, -1, 1, -1, 1, 1, 1, -1, -1, -1, -1, 1, 1, 1, 1, 1, -1, 1, 1, -1, -1, 1, -1, -1, 1, -1, -1, 1, 1, -1, 1, 1, -1, -1, -1, -1, -1, 1, 1, -1, 1, 1, -1, 1, 1, -1, 1, -1, -1, -1, 1, -1, -1, 1, 1, -1, 1, 1, 1, -1, -1, -1, -1, 1, 1, -1, 1, 1, -1, 1, 1, -1, -1, 1, -1, -1, 1, 1, 1, 1, 1, -1, 1, 1, 1, -1, -1, -1, -1, 1, 1, -1, 1, 1, -1, 1, 1, 1, -1, 1, -1, -1, 1, 1, -1, -1, 1, 1, 1, 1, 1, -1, -1, 1, -1, -1, 1, -1, -1, 1, -1, 1, 1, 1, -1, -1, -1, -1, 1, 1, -1, -1, 1, 1, 1, 1, 1, -1, -1, -1, -1, -1, 1, -1, -1, 1, -1, 1, 1, -1, -1, -1, 1, -1, -1, 1, -1, -1, 1, 1, 1, 1, 1, -1, 1, 1, -1, -1, 1, 1, -1, 1, 1, 1, -1, -1, 1, -1, -1, -1, 1, -1, 1, 1, 1, -1, 1, 1, -1, -1, -1, 1, -1, -1, 1, 1, 1, -1, 1, 1, 1, -1, -1, 1, -1, -1, -1, 1, -1, 1, 1, 1, 1, 1, 1, 1, 1, -1, -1, -1, 1, 1, 1, 1, 1, 1, 1, 1, -1, 1, -1, -1, 1, -1, 1, -1, 1, 1, 1, 1, 1, -1, 1, -1, -1, 1, -1, 1, -1, 1, 1, 1, -1, -1, -1, -1, 1, -1, -1, -1, 1, -1, 1, 1, 1, 1, -1, -1, -1, -1, -1, -1, -1, 1, -1, 1, 1, -1, 1, -1, -1, -1, -1, -1, 1, -1, -1, -1, 1, 1, 1, 1, -1, -1, -1, -1, 1, -1, -1, 1, -1, 1, 1, -1, 1, -1, -1, -1, 1, -1, 1, -1, -1, -1, 1, 1, -1, 1, -1, -1, -1, -1, 1, -1, -1, 1, -1, 1, 1, -1, -1, -1, 1, -1, 1, -1, 1, -1, 1, -1, -1, 1, 1, -1, -1, -1, -1, 1, -1, 1, 1, -1, -1, 1, 1, -1, -1, -1, -1, -1, 1, 1, 1, 1, 1, -1, 1, 1, -1, -1, -1, -1, -1, 1, -1, 1, -1, -1, 1, 1, 1, -1, -1, -1, -1, -1, 1, -1, -1, -1, 1, -1, 1, 1, 1, -1, -1, -1, -1, 1, 1, 1, -1, -1, -1, -1, 1, -1, -1, -1, 1, -1, -1, 1, 1, -1, 1, -1, -1, 1, -1, -1, -1, -1, -1, 1, 1, 1, -1, 1, -1, 1, 1, -1, -1, -1, -1, -1, -1, -1, 1, 1, 1, -1, -1, 1, -1, -1, -1, -1, -1, 1, 1, 1, 1, 1, -1, -1, 1, -1, -1, -1, 1, 1, -1, 1, -1, -1, 1, -1, -1, 1, -1, 1, 1, -1, -1, -1, 1, 1, -1, 1, -1, -1, 1, -1, -1, 1, -1, 1, -1, 1, -1, 1, -1, -1, 1, 1, -1, -1, -1, -1, -1, 1, -1, -1, 1, 1, -1, -1, 1, -1, -1, 1, 1, -1, 1, 1, -1, 1, -1, -1, 1, 1, -1, -1, 1, 1, -1, -1, 1, -1, 1, -1, -1, -1, 1, -1, -1, 1, 1, -1, -1, 1, 1, 1, 1, -1, -1, 1, -1, -1, 1, 1, -1, 1, 1, 1, 1, 1, -1, -1, 1, -1, 1, 1, 1, 1, -1, 1, 1, -1, 1, 1, -1, -1, -1, -1, 1, 1, -1, -1, 1, 1, 1, 1, -1, -1, 1, -1, -1, 1, 1, 1, -1, 1, 1, 1, 1, -1, 1, -1, -1, 1, 1, 1, -1, 1, 1, -1, 1, -1, -1, -1, -1, -1, 1, 1, 1, 1, 1, 1, 1, 1, -1, -1, 1, -1, 1, 1, 1, -1, 1, 1, 1, 1, 1, -1, -1, -1, -1, -1, 1, 1, -1, 1, 1, 1, 1, -1, -1, -1, 1, -1, 1, 1, 1, -1, 1, -1, 1, 1, 1, -1, -1, -1, -1, 1, 1, 1, -1, 1, 1, -1, -1, -1, -1, 1, 1, -1, -1, 1, 1, 1, 1, 1, 1, -1, -1, 1, -1, 1, -1, 1, -1, 1, -1, 1, 1, 1, 1, 1, -1, 1, 1, -1, 1, -1, 1, 1, -1, 1, 1, -1, -1, -1, 1, -1, 1, -1, 1, -1, 1, 1, 1, 1, -1, -1, 1, 1, 1, -1, -1, 1, 1, 1, 1, 1, 1, -1, -1, 1, 1, -1, 1, 1, 1, -1, 1, 1, 1, -1, 1, -1, 1, 1, -1, 1, 1, -1, 1, 1, 1, 1, 1, -1, -1, -1, 1, -1, -1, 1, 1, 1, -1, 1, 1, -1, -1, -1, 1, 1, -1, -1, -1, 1, 1, 1, -1, 1, -1, -1, -1, 1, 1
BQP_DATA, 4046, 18835, -9159.000000, -11303.000000, -25564.000000, -27708.000000, 8192.001631, 9810, 2165
